WARNING: for repeatability, setting FPU to use double precision
============================[ Problem Statistics ]=============================
|                                                                             |
|  Number of variables:           100                                         |
|  Number of clauses:             449                                         |
|  Parse time:                   0.00 s                                       |
|  Eliminated clauses:           0.00 Mb                                      |
|  Simplification time:          0.00 s                                       |
|                                                                             |
============================[ Search Statistics ]==============================
| Conflicts |          ORIGINAL         |          LEARNT          | Progress |
|           |    Vars  Clauses Literals |    Limit  Clauses Lit/Cl |          |
===============================================================================
|       100 |      99      448     1350 |      164      100      7 |  0.010 % |
|       250 |      99      448     1350 |      180      166      6 |  0.040 % |
===============================================================================
restarts              : 3
conflicts             : 271            (80415 /sec)
decisions             : 362            (0.00 % random) (107418 /sec)
propagations          : 6486           (1924629 /sec)
conflict literals     : 1787           (19.69 % deleted)
Memory used           : 13.00 MB
CPU time              : 0.00337 s

SATISFIABLE
